          62
          70
           1          43          31
           2          43          31
           3          43          31
           4          43          31
           5          41          30
           6          41          30
           7          39          29
           8          39          29
           9          39          29
          10          39          29
          11          38          28
          12          38          28
          13          38          28
          14          38          28
          15          37          27
          16          37          27
          17          37          27
          18          36          26
          19          36          26
          20          36          26
          21          36          26
          22          35          25
          23          35          25
          24          35          25
          25          34          24
          26          34          24
          27          34          24
          28          34          24
          29          23          33
          30          23          33
          31          23          33
          32          23          33
          33          32          22
          34          32          22
          35          32          22
          36          21          31
          37          21          31
          38          21          31
          39          18          29
          40          18          29
          41          18          29
          42          27          17
          43          27          17
          44          24          15
          45          24          15
          46          25          16
          47          25          16
          48          25          16
          49          25          16
          50          24          15
          51          14          23
          52          14          23
          53          14          23
          54          14          23
          55          12          21
          56          12          21
          57          12          21
          58          11          19
          59          11          19
          60          11          19
          61          11          19
          62          17           9
